inst_name = "MaxCut_18" 
n = 18
W = [0 708 692 894 800 564 973 949 891 610 909 558 727 876 564 775 916 999; 0 0 842 500 783 838 525 807 981 758 865 569 946 670 748 852 842 609; 0 0 0 650 971 935 557 701 662 740 825 725 645 795 845 703 654 627; 0 0 0 0 717 580 826 911 699 807 872 565 877 784 947 853 761 857; 0 0 0 0 0 572 706 677 638 802 930 993 839 705 885 935 799 940; 0 0 0 0 0 0 814 704 500 966 544 932 508 882 963 854 994 742; 0 0 0 0 0 0 0 881 617 954 775 550 536 707 788 791 928 643; 0 0 0 0 0 0 0 0 729 619 960 806 504 697 580 602 521 773; 0 0 0 0 0 0 0 0 0 722 805 669 820 812 583 674 870 735; 0 0 0 0 0 0 0 0 0 0 789 598 500 846 926 655 929 830; 0 0 0 0 0 0 0 0 0 0 0 716 660 860 939 856 734 677; 0 0 0 0 0 0 0 0 0 0 0 0 641 775 710 873 662 708; 0 0 0 0 0 0 0 0 0 0 0 0 0 739 558 826 706 669; 0 0 0 0 0 0 0 0 0 0 0 0 0 0 851 974 530 583; 0 0 0 0 0 0 0 0 0 0 0 0 0 0 0 761 910 591; 0 0 0 0 0 0 0 0 0 0 0 0 0 0 0 0 722 504; 0 0 0 0 0 0 0 0 0 0 0 0 0 0 0 0 0 899; 0 0 0 0 0 0 0 0 0 0 0 0 0 0 0 0 0 0]
W_bis = [0 605 546 563 686 551 516 524 576 865 552 815 708 569 901 688 547 500; 0 0 0 782 517 502 589 554 505 550 553 740 537 644 720 532 534 758; 0 0 0 0 0 528 527 563 700 571 590 580 742 634 536 598 786 521; 0 0 0 0 0 0 0 553 571 634 501 786 539 527 541 553 578 636; 0 0 0 0 0 0 0 0 0 692 536 503 518 541 584 555 690 522; 0 0 0 0 0 0 0 0 0 0 0 530 645 589 501 594 505 753; 0 0 0 0 0 0 0 0 0 0 0 0 0 747 677 670 554 521; 0 0 0 0 0 0 0 0 0 0 0 0 0 0 0 581 917 692; 0 0 0 0 0 0 0 0 0 0 0 0 0 0 0 0 0 567; 0 0 0 0 0 0 0 0 0 0 0 0 0 0 0 0 0 0; 0 0 0 0 0 0 0 0 0 0 0 0 0 0 0 0 0 0; 0 0 0 0 0 0 0 0 0 0 0 0 0 0 0 0 0 0; 0 0 0 0 0 0 0 0 0 0 0 0 0 0 0 0 0 0; 0 0 0 0 0 0 0 0 0 0 0 0 0 0 0 0 0 0; 0 0 0 0 0 0 0 0 0 0 0 0 0 0 0 0 0 0; 0 0 0 0 0 0 0 0 0 0 0 0 0 0 0 0 0 0; 0 0 0 0 0 0 0 0 0 0 0 0 0 0 0 0 0 0; 0 0 0 0 0 0 0 0 0 0 0 0 0 0 0 0 0 0]
